MST01
Position Depot: Center
Horizon for Depot: Small
Position of customers: Mixt
Distribution of the demand: Large
Width of time windows: Tight
Distribution of the service: Large

VEHICLE 
NUMBER 	 CAPACITY 
 7 	 	 785 
 
CUSTOMER
CUST NO. 	 XCOORD.  	 YCOORD. 	 DEMAND 	 READY TIME 	 DUE DATE 	 SERVICE TIME 
 0 	 	 500 	 	 500 	 	 0 	 	 0 	 	 2413 	 	 0 
  1 	 	 522 	 	 378 	 	 82 	 	 1001 	 	 1108 	 	 159 
  2 	 	 372 	 	 748 	 	 21 	 	 567 	 	 734 	 	 100 
  3 	 	 95 	 	 169 	 	 39 	 	 1954 	 	 2150 	 	 103 
  4 	 	 278 	 	 11 	 	 93 	 	 508 	 	 590 	 	 192 
  5 	 	 588 	 	 95 	 	 98 	 	 1525 	 	 1707 	 	 147 
  6 	 	 446 	 	 657 	 	 55 	 	 2210 	 	 2371 	 	 156 
  7 	 	 542 	 	 173 	 	 69 	 	 1131 	 	 1259 	 	 144 
  8 	 	 392 	 	 794 	 	 41 	 	 1917 	 	 2015 	 	 163 
  9 	 	 407 	 	 709 	 	 76 	 	 218 	 	 323 	 	 155 
  10 	 	 635 	 	 79 	 	 75 	 	 412 	 	 486 	 	 195 
  11 	 	 477 	 	 466 	 	 9 	 	 318 	 	 408 	 	 173 
  12 	 	 416 	 	 401 	 	 53 	 	 861 	 	 983 	 	 183 
  13 	 	 44 	 	 183 	 	 93 	 	 1354 	 	 1525 	 	 189 
  14 	 	 515 	 	 336 	 	 52 	 	 2240 	 	 2413 	 	 105 
  15 	 	 669 	 	 84 	 	 1 	 	 2184 	 	 2249 	 	 190 
  16 	 	 73 	 	 141 	 	 19 	 	 1807 	 	 1975 	 	 193 
  17 	 	 480 	 	 311 	 	 68 	 	 1805 	 	 1883 	 	 169 
  18 	 	 595 	 	 466 	 	 61 	 	 2103 	 	 2281 	 	 166 
  19 	 	 238 	 	 14 	 	 45 	 	 996 	 	 1127 	 	 157 
  20 	 	 599 	 	 248 	 	 96 	 	 762 	 	 881 	 	 169 
  21 	 	 411 	 	 587 	 	 75 	 	 1080 	 	 1184 	 	 151 
  22 	 	 503 	 	 411 	 	 94 	 	 985 	 	 1161 	 	 192 
  23 	 	 274 	 	 16 	 	 41 	 	 931 	 	 1125 	 	 184 
  24 	 	 365 	 	 831 	 	 21 	 	 1984 	 	 2057 	 	 112 
  25 	 	 594 	 	 95 	 	 93 	 	 315 	 	 457 	 	 182 
  26 	 	 493 	 	 259 	 	 58 	 	 1613 	 	 1714 	 	 137 
  27 	 	 366 	 	 826 	 	 5 	 	 1980 	 	 2147 	 	 138 
  28 	 	 132 	 	 110 	 	 96 	 	 1264 	 	 1438 	 	 181 
  29 	 	 575 	 	 102 	 	 40 	 	 1100 	 	 1164 	 	 123 
  30 	 	 595 	 	 516 	 	 90 	 	 331 	 	 517 	 	 104 
  31 	 	 524 	 	 371 	 	 95 	 	 1919 	 	 2041 	 	 128 
  32 	 	 282 	 	 14 	 	 64 	 	 2009 	 	 2207 	 	 147 
  33 	 	 214 	 	 7 	 	 90 	 	 516 	 	 626 	 	 101 
  34 	 	 205 	 	 191 	 	 40 	 	 374 	 	 469 	 	 190 
  35 	 	 506 	 	 383 	 	 88 	 	 398 	 	 594 	 	 177 
  36 	 	 616 	 	 212 	 	 32 	 	 267 	 	 342 	 	 172 
  37 	 	 173 	 	 104 	 	 74 	 	 429 	 	 583 	 	 113 
  38 	 	 52 	 	 132 	 	 76 	 	 531 	 	 637 	 	 105 
  39 	 	 387 	 	 738 	 	 48 	 	 1322 	 	 1487 	 	 197 
  40 	 	 515 	 	 122 	 	 77 	 	 2339 	 	 2413 	 	 135 
  41 	 	 39 	 	 162 	 	 26 	 	 1915 	 	 2009 	 	 152 
  42 	 	 68 	 	 66 	 	 53 	 	 771 	 	 925 	 	 125 
  43 	 	 104 	 	 224 	 	 92 	 	 1484 	 	 1619 	 	 123 
  44 	 	 570 	 	 122 	 	 91 	 	 876 	 	 1048 	 	 177 
  45 	 	 624 	 	 111 	 	 75 	 	 1246 	 	 1403 	 	 165 
  46 	 	 310 	 	 699 	 	 89 	 	 396 	 	 457 	 	 103 
  47 	 	 551 	 	 171 	 	 19 	 	 1747 	 	 1911 	 	 147 
  48 	 	 402 	 	 659 	 	 72 	 	 738 	 	 793 	 	 193 
  49 	 	 228 	 	 39 	 	 4 	 	 1562 	 	 1619 	 	 188 
  50 	 	 276 	 	 46 	 	 55 	 	 494 	 	 556 	 	 169 
  51 	 	 265 	 	 937 	 	 25 	 	 1447 	 	 1637 	 	 171 
  52 	 	 436 	 	 191 	 	 86 	 	 1414 	 	 1525 	 	 157 
  53 	 	 324 	 	 136 	 	 62 	 	 269 	 	 444 	 	 124 
  54 	 	 734 	 	 232 	 	 45 	 	 1328 	 	 1436 	 	 111 
  55 	 	 970 	 	 807 	 	 67 	 	 1559 	 	 1656 	 	 198 
  56 	 	 640 	 	 328 	 	 100 	 	 2333 	 	 2413 	 	 112 
  57 	 	 103 	 	 7 	 	 83 	 	 1326 	 	 1390 	 	 130 
  58 	 	 470 	 	 335 	 	 25 	 	 369 	 	 504 	 	 121 
  59 	 	 913 	 	 339 	 	 11 	 	 429 	 	 607 	 	 186 
  60 	 	 383 	 	 644 	 	 29 	 	 1694 	 	 1810 	 	 185 
  61 	 	 916 	 	 235 	 	 82 	 	 1740 	 	 1909 	 	 180 
  62 	 	 155 	 	 766 	 	 60 	 	 509 	 	 570 	 	 124 
  63 	 	 310 	 	 25 	 	 62 	 	 492 	 	 562 	 	 130 
  64 	 	 44 	 	 647 	 	 2 	 	 836 	 	 978 	 	 168 
  65 	 	 974 	 	 113 	 	 63 	 	 2133 	 	 2290 	 	 132 
  66 	 	 394 	 	 180 	 	 8 	 	 1617 	 	 1675 	 	 126 
  67 	 	 242 	 	 272 	 	 72 	 	 2189 	 	 2280 	 	 148 
  68 	 	 62 	 	 203 	 	 51 	 	 2227 	 	 2351 	 	 165 
  69 	 	 482 	 	 961 	 	 45 	 	 1706 	 	 1761 	 	 119 
  70 	 	 545 	 	 622 	 	 27 	 	 2058 	 	 2227 	 	 179 
  71 	 	 635 	 	 455 	 	 5 	 	 1512 	 	 1668 	 	 197 
  72 	 	 63 	 	 795 	 	 55 	 	 1678 	 	 1788 	 	 125 
  73 	 	 54 	 	 357 	 	 50 	 	 465 	 	 515 	 	 178 
  74 	 	 44 	 	 829 	 	 57 	 	 421 	 	 618 	 	 157 
  75 	 	 181 	 	 916 	 	 69 	 	 906 	 	 983 	 	 115 
  76 	 	 666 	 	 872 	 	 27 	 	 1414 	 	 1576 	 	 173 
  77 	 	 144 	 	 919 	 	 73 	 	 1542 	 	 1742 	 	 141 
  78 	 	 222 	 	 393 	 	 3 	 	 744 	 	 808 	 	 176 
  79 	 	 683 	 	 27 	 	 55 	 	 412 	 	 557 	 	 154 
  80 	 	 516 	 	 980 	 	 60 	 	 1251 	 	 1404 	 	 119 
  81 	 	 348 	 	 978 	 	 52 	 	 1153 	 	 1265 	 	 168 
  82 	 	 676 	 	 428 	 	 36 	 	 712 	 	 836 	 	 103 
  83 	 	 186 	 	 753 	 	 85 	 	 902 	 	 1020 	 	 118 
  84 	 	 706 	 	 428 	 	 45 	 	 1697 	 	 1827 	 	 120 
  85 	 	 271 	 	 888 	 	 80 	 	 1410 	 	 1489 	 	 140 
  86 	 	 303 	 	 828 	 	 71 	 	 954 	 	 1121 	 	 120 
  87 	 	 394 	 	 991 	 	 3 	 	 1047 	 	 1235 	 	 191 
  88 	 	 226 	 	 712 	 	 79 	 	 602 	 	 671 	 	 111 
  89 	 	 7 	 	 874 	 	 98 	 	 1477 	 	 1645 	 	 109 
  90 	 	 895 	 	 174 	 	 77 	 	 1145 	 	 1325 	 	 143 
  91 	 	 231 	 	 278 	 	 33 	 	 1363 	 	 1424 	 	 122 
  92 	 	 759 	 	 950 	 	 25 	 	 2184 	 	 2320 	 	 152 
  93 	 	 774 	 	 135 	 	 59 	 	 544 	 	 603 	 	 113 
  94 	 	 951 	 	 665 	 	 20 	 	 766 	 	 841 	 	 125 
  95 	 	 193 	 	 535 	 	 59 	 	 1245 	 	 1433 	 	 185 
  96 	 	 997 	 	 979 	 	 84 	 	 1757 	 	 1941 	 	 169 
  97 	 	 503 	 	 339 	 	 16 	 	 56 	 	 177 	 	 142 
  98 	 	 124 	 	 596 	 	 94 	 	 709 	 	 768 	 	 168 
  99 	 	 603 	 	 952 	 	 65 	 	 2239 	 	 2361 	 	 106 
  100 	 	 171 	 	 26 	 	 44 	 	 720 	 	 847 	 	 124 
 